CMPL model generation - running

CMPL version: 1.11.0
Authors: Thomas Schleiff, Mike Steglich
Distributed under the GPLv3 

create model instance ...
write model instance ...
CMPL model generation - finished

Solver - running


Welcome to IBM(R) ILOG(R) CPLEX(R) Interactive Optimizer 12.7.1.0
  with Simplex, Mixed Integer & Barrier Optimizers
5725-A06 5725-A29 5724-Y48 5724-Y49 5724-Y54 5724-Y55 5655-Y21
Copyright IBM Corp. 1988, 2017.  All Rights Reserved.

Type 'help' for a list of available commands.
Type 'help' followed by a command name for more
information on commands.

CPLEX> Specified objective sense: MINIMIZE
Selected objective  name:  line[1]
Selected RHS        name:  RHS
Selected bound      name:  BOUND
Problem '/tmp/cmpl.T24185.mps' read.
Read time = 0.07 sec. (8.17 ticks)
CPLEX> CPXPARAM_Read_APIEncoding                        "UTF-8"
Tried aggregator 3 times.
MIP Presolve eliminated 19214 rows and 30661 columns.
MIP Presolve modified 340 coefficients.
Aggregator did 634 substitutions.
Reduced MIP has 2507 rows, 3298 columns, and 9612 nonzeros.
Reduced MIP has 3130 binaries, 0 generals, 0 SOSs, and 0 indicators.
Presolve time = 0.05 sec. (41.90 ticks)
Found incumbent of value 844.929089 after 0.10 sec. (64.03 ticks)
Probing fixed 9 vars, tightened 0 bounds.
Probing time = 0.01 sec. (4.31 ticks)
Tried aggregator 1 time.
MIP Presolve eliminated 0 rows and 9 columns.
MIP Presolve modified 42 coefficients.
Reduced MIP has 2507 rows, 3289 columns, and 9594 nonzeros.
Reduced MIP has 3289 binaries, 0 generals, 0 SOSs, and 0 indicators.
Presolve time = 0.02 sec. (8.15 ticks)
Probing time = 0.01 sec. (2.68 ticks)
Clique table members: 5896.
MIP emphasis: balance optimality and feasibility.
MIP search method: dynamic search.
Parallel mode: none, using 1 thread.
Root relaxation solution time = 0.00 sec. (4.88 ticks)

        Nodes                                         Cuts/
   Node  Left     Objective  IInf  Best Integer    Best Bound    ItCnt     Gap

*     0+    0                          844.9291      -38.4448           104.55%
      0     0      178.8281    13      844.9291      178.8281      165   78.84%
*     0+    0                          194.9914      178.8281             8.29%
*     0+    0                          179.1995      178.8281             0.21%
      0     0      179.1143     2      179.1995      Cuts: 26      174    0.05%
*     0+    0                          179.1714      179.1143             0.03%
*     0     0      integral     0      179.1235       Cuts: 6      187    0.00%
      0     0        cutoff            179.1235      179.1235      187    0.00%
Elapsed time = 0.18 sec. (111.89 ticks, tree = 0.01 MB, solutions = 5)

Clique cuts applied:  2
Cover cuts applied:  20
Gomory fractional cuts applied:  10

Root node processing (before b&c):
  Real time             =    0.18 sec. (113.89 ticks)
Sequential b&c:
  Real time             =    0.00 sec. (0.00 ticks)
                          ------------
Total (root+branch&cut) =    0.18 sec. (113.89 ticks)

Solution pool: 5 solutions saved.

MIP - Integer optimal solution:  Objective =  1.7912354900e+02
Solution time =    0.18 sec.  Iterations = 187  Nodes = 0
Deterministic time = 113.99 ticks  (617.83 ticks/sec)

CPLEX> Incumbent solution written to file '/tmp/cmpl.T24185.gsol'.
CPLEX> 
CMPL: Time used for model generation: 1 seconds
CMPL: Time used for solving the model: 1 seconds


Solution written to ASCII file: results/output_generated_conf_0.5/2017-08-07-4/fair-nonlinear.sol

Solver - finished
